c Sudoku solution
p cnf 729 0
146 0
164 0
293 0
321 0
362 0
376 0
432 0
516 0
559 0
581 0
595 0
618 0
634 0
411 0
696 0
767 0
819 0
827 0
523 0
537 0
568 0
836 0
226 0
855 0
942 0
544 0
572 0
652 0
963 0
861 0
848 0
749 0
269 0
641 0
665 0
466 0
425 0
629 0
971 0
731 0
713 0
722 0
128 0
235 0
247 0
345 0
915 0
924 0
938 0
956 0
754 0
798 0
775 0
786 0
443 0
457 0
191 0
153 0
251 0
358 0
139 0
333 0
177 0
185 0
282 0
278 0
112 0
214 0
317 0
673 0
687 0
874 0
883 0
892 0
479 0
989 0
997 0
488 0
494 0
384 0
399 0
